solution status: time limit reached
objective value:                         108303.29579
y#6                                                 1 	(obj:5700)
y#8                                                 1 	(obj:5700)
y#11                                                1 	(obj:5700)
y#18                                                1 	(obj:5700)
y#19                                                1 	(obj:5700)
y#21                                                1 	(obj:5700)
y#24                                                1 	(obj:5700)
y#26                                                1 	(obj:5700)
y#32                                                1 	(obj:5700)
y#33                                                1 	(obj:5700)
y#37                                                1 	(obj:5700)
y#38                                                1 	(obj:5700)
y#41                                                1 	(obj:5700)
y#42                                                1 	(obj:5700)
y#43                                                1 	(obj:5700)
y#47                                                1 	(obj:5700)
y#49                                                1 	(obj:5700)
y#52                                                1 	(obj:5700)
y#57                                                1 	(obj:5700)
x#1#41                                              1 	(obj:0.03927)
x#2#42                                              1 	(obj:0.0085)
x#3#33                                              1 	(obj:0.02567)
x#4#49                                              1 	(obj:0.00782)
x#5#21                                              1 	(obj:0.03315)
x#6#37                                              1 	(obj:0.0204)
x#7#26                                              1 	(obj:0.00714)
x#8#18                                              1 	(obj:0.01054)
x#9#21                                              1 	(obj:0.01105)
x#10#11                                             1 	(obj:0.03043)
x#11#11                             0.999999999999998 	(obj:0.0136)
x#12#21                                             1 	(obj:0.01343)
x#13#33                                             1 	(obj:0.02482)
x#14#47                                             1 	(obj:0.00782)
x#15#33                                             1 	(obj:0.02125)
x#16#24                                             1 	(obj:0.01275)
x#17#11                                             1 	(obj:0.01173)
x#18#49                                             1 	(obj:0.00782)
x#19#24                                             1 	(obj:0.01972)
x#20#42                                             1 	(obj:0.01224)
x#21#6                                              1 	(obj:0.01802)
x#22#11                                             1 	(obj:0.01734)
x#23#8                                              1 	(obj:0.02159)
x#24#43                                             1 	(obj:0.01105)
x#25#19                                             1 	(obj:0.00935)
x#26#8                                              1 	(obj:0.00969)
x#27#42                                             1 	(obj:0.04029)
x#28#24                                             1 	(obj:0.01394)
x#29#21                                             1 	(obj:0.01088)
x#30#47                                             1 	(obj:0.01547)
x#31#32                                             1 	(obj:0.02159)
x#32#41                                             1 	(obj:0.01564)
x#33#32                                             1 	(obj:0.03315)
x#34#19                                             1 	(obj:0.02618)
x#35#18                                             1 	(obj:0.03111)
x#36#19                                             1 	(obj:0.01139)
x#37#52                                             1 	(obj:0.01768)
x#38#32                                             1 	(obj:0.02244)
x#39#18                                             1 	(obj:0.01496)
x#40#8                                              1 	(obj:0.02431)
x#41#38                                             1 	(obj:0.00204)
x#42#43                                             1 	(obj:0.01479)
x#43#42                                             1 	(obj:0.0017)
x#44#41                                             1 	(obj:0.01683)
x#45#32                                             1 	(obj:0.01802)
x#46#26                                             1 	(obj:0.03502)
x#47#52                                             1 	(obj:0.01275)
x#48#43                                             1 	(obj:0.00459)
x#49#19                                             1 	(obj:0.01513)
x#50#52                                             1 	(obj:0.02584)
x#51#43                                             1 	(obj:0.00697)
x#52#37                                             1 	(obj:0.01377)
x#53#47                                             1 	(obj:0.01904)
x#54#49                                             1 	(obj:0.01241)
x#55#11                                             1 	(obj:0.02771)
x#56#57                                             1 	(obj:0.00459)
x#57#21                                             1 	(obj:0.01394)
x#58#37                                             1 	(obj:0.0221)
x#59#42                                             1 	(obj:0.04029)
x#60#19                                             1 	(obj:0.01088)
x#61#8                                              1 	(obj:0.00901)
x#62#43                                             1 	(obj:0.02737)
x#63#43                                             1 	(obj:0.01581)
x#64#49                                             1 	(obj:0.00969)
x#65#33                                             1 	(obj:0.01955)
x#66#8                                              1 	(obj:0.03077)
x#67#19                                             1 	(obj:0.02992)
x#68#24                                             1 	(obj:0.01904)
x#69#6                                              1 	(obj:0.01972)
x#70#37                                             1 	(obj:0.02023)
x#71#18                                             1 	(obj:0.02465)
x#72#24                                             1 	(obj:0.0289)
x#73#57                                             1 	(obj:0.00629)
x#74#38                                             1 	(obj:0.01071)
x#75#18                                             1 	(obj:0.01088)
x#76#52                                             1 	(obj:0.00374)
x#77#52                                             1 	(obj:0.01241)
x#78#49                                             1 	(obj:0.00153)
x#79#41                                             1 	(obj:0.02431)
x#80#24                                             1 	(obj:0.01853)
x#81#41                                             1 	(obj:0.01717)
x#82#11                                             1 	(obj:0.03077)
x#83#24                                             1 	(obj:0.01785)
x#84#33                                             1 	(obj:0.00901)
x#85#26                                             1 	(obj:0.00408)
x#86#18                                             1 	(obj:0.00867)
x#87#42                                             1 	(obj:0.02788)
x#88#24                                             1 	(obj:0.02057)
x#89#11                                             1 	(obj:0.02448)
x#90#32                                             1 	(obj:0.02023)
x#91#19                                             1 	(obj:0.00816)
x#92#8                                              1 	(obj:0.01156)
x#93#49                                             1 	(obj:0.01207)
x#94#6                                              1 	(obj:0.02958)
x#95#21                                             1 	(obj:0.02669)
x#96#26                                             1 	(obj:0.02805)
x#97#6                                              1 	(obj:0.00476)
x#98#47                                             1 	(obj:0.01853)
x#99#41                                             1 	(obj:0.02329)
x#100#26                                            1 	(obj:0.0102)
x#101#6                                             1 	(obj:0.01802)
x#102#47                                            1 	(obj:0.03519)
x#103#32                                            1 	(obj:0.01581)
x#104#8                                             1 	(obj:0.00782)
x#105#52                                            1 	(obj:0.01462)
x#106#52                                            1 	(obj:0.00748)
x#107#43                                            1 	(obj:0.01547)
x#108#8                                             1 	(obj:0.02159)
x#109#26                                            1 	(obj:0.01649)
x#110#6                                             1 	(obj:0.02839)
x#111#24                                            1 	(obj:0.01037)
x#112#42                                            1 	(obj:0.02295)
x#113#32                                            1 	(obj:0.00935)
x#114#52                                            1 	(obj:0.00884)
x#115#24                                            1 	(obj:0.01683)
x#116#38                                            1 	(obj:0.02346)
x#117#18                                            1 	(obj:0.00544)
x#118#47                                            1 	(obj:0.00476)
x#119#8                                             1 	(obj:0.00544)
x#120#11                                            1 	(obj:0.02839)
x#121#21                                            1 	(obj:0.00476)
x#122#26                                            1 	(obj:0.01734)
x#123#21                                            1 	(obj:0.01853)
x#124#19                                            1 	(obj:0.01326)
x#125#19                                            1 	(obj:0.01207)
x#126#49                                            1 	(obj:0.01717)
x#127#37                                            1 	(obj:0.00663)
x#128#38                                            1 	(obj:0.01717)
x#129#38                                            1 	(obj:0.01258)
x#130#32                                            1 	(obj:0.02805)
x#131#52                                            1 	(obj:0.01632)
x#132#18                                            1 	(obj:0.01632)
x#133#57                                            1 	(obj:0.00867)
x#134#47                                            1 	(obj:0.01632)
x#135#26                                            1 	(obj:0.00884)
x#136#32                                            1 	(obj:0.017)
x#137#43                                            1 	(obj:0.01292)
x#138#43                                            1 	(obj:0.03519)
x#139#32                                            1 	(obj:0.02329)
x#140#6                                             1 	(obj:0.02788)
x#141#32                                            1 	(obj:0.01513)
x#142#18                                            1 	(obj:0.01139)
x#143#37                                            1 	(obj:0.00986)
x#144#18                                            1 	(obj:0.01462)
x#145#41                                            1 	(obj:0.03281)
x#146#38                                            1 	(obj:0.01258)
x#147#21                                            1 	(obj:0.00646)
x#148#38                                            1 	(obj:0.01241)
x#149#21                                            1 	(obj:0.01071)
x#150#37                                            1 	(obj:0.017)
x#151#33                                            1 	(obj:0.00765)
x#152#37                                            1 	(obj:0.00833)
x#153#33                                            1 	(obj:0.01071)
x#154#57                                            1 	(obj:0.02006)
x#155#6                                             1 	(obj:0.01275)
x#156#37                                            1 	(obj:0.0051)
x#157#33                                            1 	(obj:0.03961)
x#158#11                                            1 	(obj:0.00986)
x#159#19                                            1 	(obj:0.00952)
x#160#6                                             1 	(obj:0.02108)
x#161#41                                            1 	(obj:0.02295)
x#162#47                                            1 	(obj:0.01241)
x#163#42                                            1 	(obj:0.00238)
x#164#21                                            1 	(obj:0.02193)
x#165#19                                            1 	(obj:0.00782)
x#166#18                                            1 	(obj:0.01122)
x#167#52                                            1 	(obj:0.0238)
x#168#8                                             1 	(obj:0.01938)
x#169#49                                            1 	(obj:0.00578)
x#170#24                                            1 	(obj:0.0085)
x#171#49                                            1 	(obj:0.01003)
x#172#6                                             1 	(obj:0.00731)
x#173#57                                            1 	(obj:0.02312)
x#174#11                                            1 	(obj:0.01258)
x#175#8                                             1 	(obj:0.00663)
x#176#41                                            1 	(obj:0.02771)
x#177#6                                             1 	(obj:0.01734)
x#178#57                                            1 	(obj:0.00901)
x#179#37                                            1 	(obj:0.00357)
x#180#26                                            1 	(obj:0.01224)
x#181#24                                            1 	(obj:0.01955)
x#182#21                                            1 	(obj:0.0408)
x#183#57                                            1 	(obj:0.01972)
x#184#33                                            1 	(obj:0.01802)
x#185#33                                            1 	(obj:0.01003)
x#186#43                                            1 	(obj:0.00697)
x#187#49                                            1 	(obj:0.00952)
x#188#33                                            1 	(obj:0.02584)
x#189#41                                            1 	(obj:0.02312)
x#190#47                                            1 	(obj:0.01241)
x#191#52                                            1 	(obj:0.02482)
x#192#41                                            1 	(obj:0.02227)
x#193#57                                            1 	(obj:0.00782)
x#194#43                                            1 	(obj:0.00697)
x#195#18                                            1 	(obj:0.01751)
x#196#37                                            1 	(obj:0.0119)
x#197#47                                            1 	(obj:0.01751)
x#198#47                                            1 	(obj:0.00102)
x#199#49                                            1 	(obj:0.02601)
x#200#42                                            1 	(obj:0.03332)
